702
extracted_frame=1845 original_comment=system=T4_IV_Hudecova stage=05_298K_extended source_frame=1345 global_frame=1845 time_ps=18.450000 alignment=none
C   -5.626780640954 -0.651863912318 -3.155015608560
O   -6.610855419198 -0.906904163676 -2.457555271133
O   -4.875926767941 -1.493758076613 -3.696241511267
C   -5.216474329530  0.804156120674 -3.237774080959
H   -4.958756349944  1.027496045420 -4.202040396685
N   -6.238881896605  1.674424050428 -2.735690749236
H   -5.797971610457  2.371137537298 -2.111403061262
H   -6.708602553864  2.128863744306 -3.564903582859
C   -3.916137256979  0.790281965380 -2.426126469462
H   -3.319830223337 -0.184868566828 -2.629700155148
H   -3.210965748943  1.548250421724 -2.628311377235
C   -4.121663444480  0.713222907309 -0.960554805432
N   -5.344634133019  0.536087434272 -0.356602518876
C   -5.136807389600  0.651980618978  0.971287357989
H   -5.908842176575  0.478814308850  1.674257091506
C   -3.181780332426  0.794135701480  0.010173293542
H   -2.133139468053  0.691373694093 -0.096494939460
N   -3.863906905583  0.885624285947  1.202247218709
H   -3.456094088706  1.093527515648  2.111950335452
Zn  -7.209620979949  0.571555397927 -1.375317701929
C   -9.261403083236 -0.435279708525  0.625896211613
C   -10.371843794454  0.383005069031  0.016589426238
C   -9.840212397886  1.481483231807 -0.884781692872
N   -9.102105573662  0.849230101517 -1.999505121621
H   -9.403898790499 -0.089761338162 -2.209015658373
H   -9.113915520693  1.388564575435 -2.851718013732
H   -10.626695857328  2.079621501635 -1.299957551327
C   -9.070070549410  2.454398128321 -0.017277509737
O   -7.801499922359  2.443564724725 -0.104036183091
O   -9.675855916818  3.139919532675  0.808549534559
H   -10.975337082886 -0.233453443010 -0.663142655718
H   -11.192548249581  0.804192516520  0.674425922067
C   -9.387852740233 -1.343233747863  1.685934549144
H   -10.218632163858 -1.412300261951  2.307562274840
N   -8.204553036742 -1.910989493005  1.868105535088
H   -7.939529481913 -2.473558352310  2.700822353777
C   -7.398905188961 -1.414910713143  0.926884700236
H   -6.400131466180 -1.779210867148  0.815244811826
N   -7.938811172362 -0.490556387958  0.214217286850
O   -3.403490073356  0.866697741055  3.888501668376
H   -2.676218644227  0.394947376889  4.248503654909
H   -3.303907420384  1.764667913151  4.256096523584
O    7.674377865292 -6.257119232990  0.331117317915
H    7.579556336457 -6.954793938515 -0.383764626487
H    7.214415124980 -5.507888387381 -0.095538618662
O    1.929266887827  2.300266805681 -2.671435185038
H    2.748139154928  2.734815967548 -2.350253895199
H    1.275745082204  2.942255309687 -2.910878328433
O    6.500260738494  4.111651908188 -4.388657898236
H    6.995633847525  3.274267608849 -4.390531265458
H    6.005162167222  4.135599584256 -5.279936676287
O    5.111510809042 -1.770366410678 -1.203725342707
H    4.258435859437 -1.694435739596 -0.778189494321
H    5.010551163028 -1.558876046426 -2.102652995892
O   -7.026136804976 -5.078991837216 -3.507276488768
H   -6.975767405753 -5.914812126136 -3.093978844328
H   -6.138620409604 -4.662845045356 -3.338566022148
O    4.433557602314  7.114198958026 -3.019275903229
H    4.304208984751  7.610134914435 -2.233590627182
H    4.745162975642  6.272142351255 -2.805360580868
O    3.413230777371  5.252566179592 -0.685364020712
H    3.420451990820  6.272981389367 -0.677298063853
H    3.519057092033  4.954144050706  0.229240608086
O    6.311112130891 -2.620726492103  3.887903205630
H    6.199265214744 -3.474590918436  3.439838924258
H    6.582728760578 -2.850659989340  4.794124792317
O    7.774996278921 -5.686976821140  2.800028192893
H    7.604062004786 -6.569208693008  2.512059876607
H    8.098964872934 -5.244241563104  1.977064624135
O   -2.105984860488  8.102289627385  4.386483839565
H   -2.661813470404  7.329587576523  4.645700520959
H   -2.755645459284  8.753976978229  4.074706498679
O    0.196541922441  4.612655301385 -3.355611366242
H   -0.448586426628  4.408301750911 -4.097193484069
H   -0.306342797511  4.256746409703 -2.567668224523
O    0.699292940699  7.452761172610  4.865781663596
H    0.329474282088  6.556919781482  4.878326442201
H    0.073163514747  8.143984322073  4.935772171563
O   -3.633649290728  6.492799166163  0.350632938785
H   -3.348151701274  5.932165008933 -0.399541946763
H   -4.585098367876  6.305553852873  0.455083035411
O    7.293116550078 -2.325333384718 -3.829372424162
H    7.820901925515 -2.370709550605 -4.652852080739
H    6.446990549505 -1.943603685614 -4.070690906681
O    4.338147440212  3.111417339928  9.673627231698
H    3.791076297518  3.823464194997  9.448067139864
H    3.666414362405  2.527735191426  10.049528318073
O    3.449947506619 -0.926246184746 -6.797572175050
H    2.825962279056 -1.554294966650 -7.233090211911
H    3.074618567958 -0.052459521800 -6.800985603724
O   -5.876105782647 -5.912607205275 -0.736099871407
H   -5.645754994347 -6.673936710688 -1.327801193021
H   -5.721455861519 -5.166167369214 -1.371872069149
O    2.763544135269 -4.964470116868 -5.446271328139
H    2.748500173694 -4.033248519584 -5.727620682728
H    3.385260152379 -5.074852029465 -4.731723631379
O    7.637905456955 -8.099412855863 -1.952610092050
H    7.896132209571 -8.978392976833 -2.105668182207
H    6.627861054677 -8.145194939301 -2.024901894559
O    4.934650905175 -8.155528548898 -0.924632183178
H    5.003145210319 -7.665996572596 -0.090840373936
H    4.810016244287 -9.085665976551 -0.808383435724
O    8.988746833531 -5.696621912161 -2.017169416161
H    8.359381298272 -5.636123615945 -2.797108841539
H    8.919419406174 -6.589826589671 -1.834287937598
O   -2.583150280221 -8.280363699433  1.087069850089
H   -2.550717034388 -8.695826567055  0.165991529530
H   -3.197224459672 -7.542782408520  1.137435578942
O    2.836349273791 -2.551341359242 -0.424308635249
H    2.514212275560 -3.154345552795 -1.114461992407
H    3.196084621565 -3.047294808953  0.306930680101
O    7.016048204209  2.390845770319 -1.391335579339
H    7.726048339279  2.520648554631 -0.704181875156
H    6.720430852244  3.351762050749 -1.480436727905
O    6.543040717806 -0.085750560563  0.759162255025
H    7.446724426304 -0.369543393231  0.655490378219
H    6.560640508774  0.587983734669  1.505368651545
O    0.183291467798 -10.079996863672 -0.468742637753
H    1.061697045151 -9.778365786737 -0.592571575830
H    0.077733241741 -10.336862110764  0.462243505167
O   -6.058695217647 -1.446758339597  6.773018219031
H   -5.929150963363 -2.235038498951  7.308802381013
H   -5.495888414117 -1.535651733919  6.003539328125
O    7.550496767705  1.546637758035 -3.907825434547
H    7.513489952176  2.054155405175 -3.039398078007
H    8.198146160541  0.866264706810 -3.850234626951
O   -9.186816776394  3.179977462722  3.584041140215
H   -8.759507497829  2.375968864862  3.837771884075
H   -9.274864987661  3.172168392202  2.560139212119
O   -7.864536211605 -3.333097762330 -1.731871938164
H   -7.754517475449 -3.902718191389 -2.517313975836
H   -7.389816359552 -2.509574109632 -1.796235461519
O    6.682600150061  5.368076585484  7.671075650608
H    6.839081815718  4.397474360876  7.811075136797
H    7.365678923617  5.924560048869  7.897586859771
O    5.403348865668  3.879335615588  5.667677590664
H    5.913854712338  4.707714885568  5.778622743973
H    5.403866505482  3.507105283082  6.591381042608
O    2.433515179903 -7.794217089695  0.799915287721
H    2.633246206026 -8.602338191210  0.216349913606
H    1.453812319103 -7.776079382271  0.784249241557
O   -4.356284773897 -1.854726233150  4.573175633220
H   -3.637991743699 -2.119055476720  3.953351418894
H   -4.224282166500 -0.874199474777  4.626385321511
O    1.354638169734  8.564443219599 -5.337007697328
H    1.208392419578  7.996549093594 -4.589721162668
H    1.925328624433  9.326971636561 -5.081485592869
O    4.357316027352  3.606843189619 -2.710212154872
H    4.620271891426  3.485523392897 -1.798164149338
H    5.152924051004  3.819722416115 -3.274025620172
O   -0.212276294837  0.320853076549 -2.094250532432
H   -0.880563590553 -0.291088989736 -1.747601758381
H   -0.346476917374  0.490136459421 -3.032162874768
O   -3.604770014928 -3.100612317075  1.953516109348
H   -4.107612881783 -2.541900730537  1.277480379002
H   -4.239673045206 -3.821943116526  2.149526046088
O    7.682450187740 -0.418211827868 -1.957404031232
H    8.004076099728  0.264318173319 -1.278395807902
H    6.840040096031 -0.643992744759 -1.541188703903
O    2.279652504315 -0.080215586467 -1.026135406389
H    2.253001907478 -1.040673315303 -0.978345881891
H    1.411032892909  0.180311309510 -1.406077038535
O    2.459194382466 -3.786023190112  7.609019045135
H    3.070481009847 -3.577773306916  6.895515035392
H    2.033634755720 -4.633259569561  7.369511991032
O   -1.747667635748 -7.813614040596 -2.012557415975
H   -2.131704425823 -7.400357922754 -2.799282310708
H   -0.761378554907 -7.812224805984 -2.249503457528
O    5.524344747498 -8.078062864872  4.067958003545
H    5.797437834108 -7.844378946443  4.938654325477
H    4.594621066404 -8.250193317959  4.092932186819
O   -9.734866824780 -1.759413691066 -2.945024087466
H   -9.278707704169 -1.861416336643 -3.855958281499
H   -9.114395812927 -2.204227151752 -2.347637539402
O   -7.496468779291  6.393002529674 -2.107924479039
H   -7.171120954212  5.881621736483 -2.894195657650
H   -8.398931078048  6.022474120586 -2.057671416847
O    6.590710103703  0.424277464920  7.155630878550
H    7.177805783129 -0.399307943840  7.215125050142
H    6.110369795909  0.410346960875  6.296880817774
O    6.384407935291  1.690859973177  2.892130752357
H    5.526881741512  1.690049067951  3.272015469287
H    7.063424101494  1.941113166241  3.572859080523
O   -2.268501853755 -0.532517207404  6.997164739273
H   -1.782349925434 -0.281628680081  7.802345545783
H   -3.039550785933  0.107038074426  7.024344060705
O    3.102721659971 -5.845861268941 -8.260305829883
H    4.026815945518 -5.577954986745 -8.044545815504
H    2.649745835608 -5.541294648924 -7.476746277156
O   -6.978377700065  8.412161063670  2.017336227876
H   -6.487082294449  9.182604904930  1.657134869745
H   -6.745667925908  8.348216719227  2.979535889797
O   -10.092785349424  5.586178730958  1.943473718382
H   -10.156365775809  4.835892037124  1.336916241896
H   -10.593753811134  5.310015663192  2.720669779785
O    3.692278354807 -7.213466579483 -2.884564313388
H    3.418493217391 -6.396730370763 -2.586307546017
H    4.196980198510 -7.711427720130 -2.195927157982
O   -2.922611870595  3.632761126225 -3.072479557169
H   -2.291724411291  4.340342420849 -2.842114590983
H   -3.751181799958  4.098100525771 -2.988924237885
O   -5.569431280845  7.412391476414  4.381801950658
H   -4.783200666723  6.804407030010  4.321352076089
H   -6.297018903545  6.732578851465  4.156094965273
O   -1.516782302405  6.102658650520  6.872800392082
H   -2.362582359082  6.583218860347  7.029426368745
H   -1.197226865452  6.361486742415  6.004102662075
O    5.164994531491 -5.810148075230  6.577467173879
H    4.645904016118 -5.770383735373  5.761555158421
H    4.443558527855 -5.583666212996  7.237887896096
O   -6.325262832008  3.228182831304  1.922887168486
H   -6.744478230709  3.793382470103  2.576899720181
H   -7.016638764220  3.023111709507  1.240102469294
O    0.995811682672  2.752001473459  1.265532309909
H    0.813036626524  2.323369481595  2.072310087533
H    1.937791097671  3.055202452759  1.232966599389
O    2.445153020577  8.235626798450  2.538536772703
H    3.191677299010  7.818073898819  2.982653785258
H    1.996342253399  8.633393764965  3.251207308325
O   -2.031998358315 -1.433152811412 -7.995024282283
H   -2.742363149726 -1.744063568763 -8.568570489955
H   -2.523865670478 -0.902252879738 -7.328192157443
O    2.870748462086  4.914131860450  5.165300247462
H    3.746840492771  4.452842203835  5.286765874698
H    2.098721037442  4.676994113546  5.686606291704
O    1.982536507113 -8.963189469613 -4.218154401927
H    2.788902427788 -8.482106936770 -3.931440631233
H    1.315430979068 -8.760473082486 -3.583701440810
O    0.870213416333 -7.305350113797 -2.312253500844
H    0.841747241448 -7.011673387453 -1.378897031126
H    1.061839200083 -6.605922658756 -2.876741985811
O    7.862418266248 -1.808793730319 -6.673814749534
H    8.671105433419 -1.258719479713 -6.789182172795
H    7.130247021268 -1.163354499845 -6.684453129504
O   -2.009783112279 -5.288666782701 -0.814134126496
H   -1.887542449255 -4.345241989788 -0.677078291631
H   -2.693157208512 -5.482859598994 -1.481390578046
O   -4.455858383764  0.969289210538  6.615976146050
H   -4.757107057059  1.020017963581  5.702542287113
H   -5.072603804292  0.411027170338  7.109933447708
O    0.757438444634 -2.699774123459  9.758116744243
H    1.446656191322 -2.831150052996  9.075144174475
H    0.613850668935 -3.569765614614  10.046006141227
O   -0.642058448109  0.100363427522  4.929962122294
H   -0.986145188360 -0.595494096723  4.344759695490
H   -1.040983123760 -0.106911042074  5.766154263044
O   -0.489012862067 -0.324739868744  9.663670657901
H   -0.579155649524  0.597394979743  9.888909956838
H   -0.128660437524 -0.831698890280  10.415181625446
O   -7.773625958288 -2.498464020299 -5.169599113767
H   -7.065363410512 -2.092322836688 -4.707179572153
H   -7.701264819435 -3.432354879040 -5.060275768791
O   -6.375199532558  0.218489904515 -6.211973032767
H   -6.655735703861  0.607417649620 -7.038220229114
H   -5.966694341208 -0.609462457719 -6.457265770136
O   -0.331037671047  2.870564245311 -1.331335706516
H    0.213114754221  2.968160456916 -0.524012778923
H   -0.187889544112  1.924499366916 -1.649292442626
O   -0.285673928284  0.139251939682 -9.613610861692
H   -0.836454229182 -0.538227034744 -9.165421214145
H   -0.381391414152  1.088178383181 -9.251879360196
O   -3.760590576911  3.669267671625  6.580010185289
H   -4.630555400673  4.069562058992  6.446415613318
H   -4.010585169185  2.731220209053  6.725071229190
O    6.323303662201  5.094665857163 -1.108495974130
H    6.941030866670  5.161456273280 -0.372573840422
H    5.439331965555  5.218762364110 -0.752806854204
O    6.739943923870  2.788457795978  8.244395824719
H    5.961723979367  2.901750947122  8.821933441508
H    6.733805622850  1.879633226610  7.913027794619
O   -5.249938570103  3.804607330213 -0.726206891865
H   -5.766728082071  4.561330525710 -0.468963002676
H   -5.702533759902  3.041338307197 -0.466920538822
O    0.852363747070  10.051968711952 -2.221428345365
H    0.840657746235  9.435594356616 -1.439280448484
H    1.657156874815  9.663947199213 -2.588683927774
O   -3.007856123956 -4.852070768251 -5.652296112209
H   -2.133754641716 -4.424566437188 -5.754160242104
H   -3.013005469779 -5.616621076257 -6.214692413879
O    1.836437807734 -11.614888383257 -4.915439567703
H    1.658226681648 -10.681179401045 -4.680967483600
H    1.487163183042 -11.695202852561 -5.814565775074
O    4.710795756505  0.644644359076 -3.163299594573
H    4.732540465830  1.405667745522 -2.584439760109
H    5.583672652915  0.826625297883 -3.569427870083
O    10.029083006688  1.137735706603  0.119628988726
H    10.209288307724  1.797712424843 -0.594818503066
H    9.814692169083  1.690311961926  0.889215341546
O   -0.263375625605  5.110566272313  4.199339830021
H   -0.677832068398  5.271656878350  3.313178098318
H   -0.697381500773  4.268544793011  4.418329016899
O    1.074470241173  2.434936522752  3.781388277632
H    2.021111699748  2.133752882667  3.836189977993
H    1.079034287616  3.401225274792  3.713528634421
O   -1.427237778496 -4.330310075125  5.382308936201
H   -0.526958985057 -4.176780429584  5.738694332964
H   -2.038499260301 -3.799065650073  5.932320167858
O    7.322268113259  3.792382731826  1.338588932250
H    6.596026126656  3.109466580972  1.366914595284
H    6.844260665282  4.602642121591  1.769361253860
O   -6.896144605535  4.919976565513 -4.178899334805
H   -6.172400956396  4.797437288516 -4.780290261756
H   -7.563290294389  4.252809936480 -4.399780202193
O   -3.027221053968 -10.024262158384 -4.192203979689
H   -3.499650065510 -10.610547987600 -3.578631830252
H   -2.256824604828 -9.783076576000 -3.682748750473
O   -6.991211038357 -2.693536366472  4.297869600004
H   -7.050304225385 -3.625437116482  4.526308979946
H   -6.087466553179 -2.409683809089  4.440728355854
O    2.009490493886 -0.378463860797  4.919704988142
H    1.120958205365  0.018237777759  5.004581472570
H    2.278625187595 -0.366577474497  3.991361029668
O    6.052390875418  0.154909657729 -6.414171401326
H    5.119777113812 -0.072962915756 -6.319963775988
H    6.234867815434  0.892549900549 -5.768682185645
O   -1.611930838221 -2.015159944550  3.633919734138
H   -1.119198316181 -2.152442764101  2.776244332463
H   -1.304446927487 -2.690723544089  4.318235983926
O    0.927287297261  11.382270877222  0.569675805625
H    0.189943689566  11.398436746358 -0.078954713184
H    1.591437532755  10.758181013782  0.181171262485
O    1.609862820460 -7.321862594753 -6.303593096330
H    2.121253748377 -6.572068357545 -5.912093231152
H    2.302182043192 -7.960265141430 -6.290793350951
O    0.979105267422  4.903166869093  6.923737808157
H    0.213159804204  5.487291499780  6.955194056108
H    0.743144901339  3.932911576957  7.052253929642
O    5.129488425556 -4.218328346583 -6.829248417251
H    5.230684818940 -4.942401376086 -6.191151726959
H    5.293046266723 -3.401440399549 -6.310792253809
O   -3.470281223329 -0.290425727630 -5.703483948233
H   -3.234076333856  0.637738541634 -5.377799113206
H   -3.861028419728 -0.823092750138 -4.945345860721
O   -1.621528626146  3.467257497762  7.775590543749
H   -2.561315656222  3.418620338868  7.748766133902
H   -1.452047436750  4.425347737259  7.656374501463
O   -1.290816990744  7.559908032175 -5.386121489141
H   -0.807675787520  6.895204923219 -5.918223243384
H   -0.808329314377  8.398260513751 -5.503913222372
O    3.960596024774 -8.513812184105 -6.773888652415
H    4.321172935532 -7.794464163661 -6.360813251573
H    3.744393137363 -8.121952444521 -7.665557744508
O    3.321740552903  10.241762743312 -4.591623101620
H    3.637120981606  10.777211782039 -3.895638716396
H    4.013312691425  9.554830333617 -4.794132721735
O   -2.521091296702  3.812952192890  0.069708045103
H   -3.327961930570  3.654505130004 -0.413653516136
H   -1.796352088609  3.437355944106 -0.463513575585
O    0.831135080815 -0.178024720475  7.418940583129
H    1.787391180444 -0.420753320418  7.329273828627
H    0.516006169318 -0.419057524618  8.321487836784
O   -9.177637130824  0.411514500053 -5.087353693512
H   -9.976803908496  0.155810354550 -4.702323342426
H   -8.602424057166 -0.253970488322 -5.397458942795
O    2.437675795170 -6.298895478809  6.600785502344
H    2.021996082512 -7.029211964651  7.094661398070
H    1.828912105949 -6.241217720542  5.838111037382
O    3.907288173603 -2.518207530847  5.548587392590
H    3.965020103472 -3.322585618472  5.079121684850
H    3.147444350462 -1.988668160598  5.189646066440
O    0.505376227563 -6.356632748245 -8.889019825220
H    1.006945207376 -6.807764208241 -8.160728183448
H    1.022587312410 -6.578588639041 -9.667573335988
O   -0.049415842831 -2.586922138273  0.899874416791
H   -0.080609027939 -3.289879065211  1.616590956619
H    0.133582386754 -1.664400655134  1.329364646587
O   -6.252819985396  6.420785906857  0.178128111420
H   -6.660081100145  6.565163651651 -0.687756322304
H   -6.525578816092  7.235442574210  0.683706229626
O    2.379080345380 -2.512387797291  3.156508960432
H    3.071696958448 -2.564328427893  2.505403191272
H    1.785112855471 -1.882885366229  2.754179578094
O    0.687203077037  5.236708271673 -0.097437593333
H    0.741667411506  4.616864851263  0.624532910668
H    1.517554153111  5.185326859025 -0.562260948235
O    3.719660343330  1.932096378626  4.043578228019
H    3.879064424224  2.382455189521  4.889664607937
H    4.051672059515  1.079024621572  4.377933869985
O    5.285832652108 -4.570684125355 -1.349717840073
H    5.457452774679 -3.733910680167 -0.906069690043
H    4.467571772080 -4.869312870669 -0.961638631605
O    5.508570164963  5.462701513824  1.922231540447
H    5.293307817469  6.144477213274  2.513371479804
H    4.796605723604  4.820212342987  1.941728925542
O    3.578741853397  8.010393371215 -0.146661042753
H    2.785812769831  7.894510970889  0.464650971862
H    4.332517024673  8.153397467076  0.421960763964
O    2.694263410001  5.129385318843  8.969063272310
H    3.014729854603  6.036674281056  9.007364635925
H    2.266540947626  4.986018083850  8.056681860059
O   -0.489122376627 -10.611608537853 -3.100974799551
H   -0.103087780077 -11.422903944445 -3.431978827365
H   -0.361167107403 -10.450494748162 -2.147998403340
O    0.752652253699 -4.659858032239 -3.819144194270
H    1.684724367702 -4.520912625246 -3.758264751103
H    0.440408299354 -4.260969836312 -4.644286740808
O    0.314628747488 -2.724567004393  6.390141801969
H    0.409250818872 -1.894036482987  5.889316763821
H    0.888053525388 -2.673280024380  7.128645077740
O    1.779938931467 -2.387275470124 -5.290566057514
H    1.915660413016 -1.390507023325 -5.317309131640
H    0.941326049985 -2.641667023273 -5.683109152689
O    2.502369229115 -0.284399411988 -9.712087525822
H    1.564403960529 -0.383513093008 -9.968071173461
H    2.745319258366 -1.189637372363 -9.652800225218
O    4.351955832808 -1.698731245366 -4.273137431890
H    4.197535601489 -0.803034881406 -3.856955548191
H    4.008753768851 -1.606900343443 -5.186027452268
O    5.427246335832 -9.384390880560 -4.470023051302
H    5.702781051215 -8.519395530161 -4.290035575369
H    5.063662041701 -9.238655219230 -5.356068181402
O    3.226201935396 -3.838228606956 -3.111399047609
H    3.266851784442 -2.907761992255 -3.458124694842
H    3.991057842640 -4.093628350817 -2.600423354175
O    2.773582437513 -9.688833306257 -1.295708043095
H    2.300912255515 -9.356226511404 -2.048366727480
H    3.630633812159 -10.198485707670 -1.604510927828
O   -1.516177959447  2.173048247066  2.168000201014
H   -1.600415053603  2.659661130750  2.987203717453
H   -1.787084219240  2.756084109299  1.469896960598
O    5.251914594458 -0.167647931857  4.782621047972
H    6.163669492256 -0.244811045915  4.595727414724
H    4.908925837107 -1.066147667549  5.078254141034
O    3.572643664675  2.152757734712  7.036570374949
H    3.745508519646  2.302867389357  7.961682226476
H    2.627374774639  2.259811203308  6.844555832453
O   -6.565875690998 -5.423138569142  3.616254922157
H   -7.004206918627 -5.449825291494  2.756722557021
H   -6.168474217742 -6.298397221291  3.594594783970
O    2.695143741237 -7.937547513191  3.391629812142
H    2.153329197842 -7.258106154628  3.039597582313
H    2.253985792361 -8.261964614353  4.221688909336
O   -4.619396458873 -3.878657891476 -2.714745356510
H   -3.750493322693 -4.180063621913 -2.977811052998
H   -4.657416289288 -2.968603025145 -3.119881956291
O   -4.389895127520  6.348592849096 -3.031722083117
H   -4.304854441838  7.264676038304 -2.684085149264
H   -5.063421535345  5.969387257465 -2.431934264927
O   -7.434112972898 -4.808373163322  0.955056040252
H   -6.751136115369 -5.180948172879  0.377867068253
H   -7.941428355629 -4.226501962622  0.403600329126
O   -1.608538998888  8.291941964942 -2.776324275803
H   -2.077554513686  8.139542315642 -3.596760531011
H   -0.655611824184  8.276411544506 -3.058387973633
O    8.088469569461 -3.024552070973 -1.308244492309
H    7.853481086956 -2.617218614521 -2.165015402002
H    8.462199956158 -3.905836661446 -1.444892527056
O    8.383932237335 -1.554440840764  6.354665412835
H    8.761306670088 -2.376128381936  6.770546743320
H    8.672885129618 -1.469855814610  5.432528519837
O   -1.293305479653 -2.012081985051 -5.102540460331
H   -1.974278497377 -1.809080801545 -5.765651775145
H   -1.091502948853 -1.102568884849 -4.937629314337
O    1.329853227614 -5.013315014194  4.397136748252
H    1.271258628283 -5.299486571497  3.440305808797
H    1.642180362003 -4.101333886197  4.240740574704
O   -0.181386164555 -7.064452605327  0.201527719735
H   -0.894728342501 -7.728060311256  0.113699995918
H   -0.580277531181 -6.287368209563 -0.153141703073
O    0.107744159941  2.416706116082  9.617377747799
H   -0.181771503215  2.599265002991  8.711344032059
H   -0.027779827729  3.319712053494  9.987684981942
O   -3.066946025049 -6.791217238445 -3.937330309970
H   -2.812758172553 -7.437721923104 -4.573178352690
H   -2.898639691289 -5.953956159893 -4.381957729704
O   -7.813128448499  2.633025978470 -5.072802739963
H   -8.334395041460  1.753324197591 -5.194677476610
H   -7.147389921466  2.576032457485 -5.740948380238
O    5.208970276260 -6.720376606782  1.365106841734
H    6.113331641880 -6.610507165624  1.053812204415
H    5.233776221666 -7.285695176120  2.179955670511
O   -0.637396524735  2.582799377069 -8.084303278026
H   -0.044160914787  3.269005821352 -8.405492090732
H   -0.342021576316  2.480770896793 -7.153216477124
O    4.658362735333 -1.622373118023  2.057135143075
H    5.129022049407 -1.629079097083  2.884385279667
H    5.379171367977 -1.240814741029  1.477748180642
O    8.473435936707 -0.761382183758  3.756047373240
H    8.864206708345 -0.743268798014  2.849172556018
H    8.009932754419 -1.608278216808  3.669262469282
O    2.073096989121 -2.861570162087 -8.397607583199
H    1.293063774796 -3.210494490308 -7.996952457952
H    2.701831569023 -3.605539527549 -8.451574208096
O    0.545830754712 -4.295053036788 -1.092783248774
H    0.499834360942 -3.838169395877 -1.897580061823
H    0.371904570279 -3.483545499738 -0.518757995839
O    0.970561186513  7.186481623762 -3.116745555985
H    0.485811121369  7.197910019614 -2.258532998444
H    1.054923738424  6.210756143083 -3.288416658207
O   -7.399251598093  5.646363816149  2.953895301611
H   -7.219080600490  6.229877997381  2.184172634308
H   -8.373770095585  5.624256436208  2.896705785144
O    2.352862529411  1.200975110198  10.284688183600
H    2.674693707812  0.647966590045  9.617733504427
H    1.548677341191  1.575574205495  9.895338215045
O    5.268091208920 -10.517724289216 -1.922057894360
H    5.349614287249 -11.489067143362 -1.965719479829
H    5.462246426821 -10.288444930460 -2.884343614070
O   -2.737984421697  2.378162471725 -5.454491575448
H   -2.052136246320  2.933190583233 -5.821767288256
H   -2.893368034854  2.768787409130 -4.535693788559
O    7.447752425528 -4.622892210858  5.519002670801
H    7.428107838923 -5.129174420936  4.693788687679
H    6.670869641111 -4.975733180128  6.030510840068
O   -4.471586263243 -2.837384801163 -6.311534165864
H   -4.792120081900 -2.559031103375 -5.464860429389
H   -4.283053620400 -3.796638798848 -6.215609495794
O    0.487844200374 -8.682576663673  5.124185989915
H   -0.114108581538 -8.917900005571  4.419012365882
H    0.015780002527 -8.371830135222  5.925498634527
O    0.844128756289 -10.085032984712  2.364856840829
H    1.791457850953 -10.063493773055  2.109547359106
H    0.642535579871 -9.145811749244  2.504373359223
O   -3.909223057257 -5.876092492122  1.225709474643
H   -4.744166460625 -5.830657795207  0.711813840451
H   -3.227910733044 -5.519908696092  0.660558949864
O   -1.651730951063  5.863867813290 -1.765058261211
H   -1.625718277393  6.718952258301 -2.203413933444
H   -1.184922375644  5.686354878747 -0.933276352889
O    0.840566677575  2.296503905953  6.479706083876
H    0.711487488469  1.396791604382  6.942461122640
H    0.704917753081  2.201900625830  5.462245901245
O   -5.177814843002 -7.700383881959 -2.359687476254
H   -4.685944294667 -8.476030200084 -2.120043374791
H   -4.696339477803 -7.241074914141 -3.039361626897
O    4.603204832858 -5.156454244579  3.862829286564
H    4.196053068759 -4.762359347200  3.070575095235
H    5.020388212597 -5.977999733830  3.527746785209
O   -1.258188687215  4.408707789789 -5.553620870187
H   -0.463402330740  4.923122190171 -5.882813213943
H   -2.055774803491  5.055528725103 -5.531612845578
O    5.085220442815 -6.662842887184 -5.049411590569
H    4.467302633462 -6.746704444761 -4.250486691519
H    5.735240274695 -6.019252359526 -4.672707272984
O   -1.780948382826  10.166145750908 -0.494751911115
H   -1.322497324545  10.177603040224 -1.317698569277
H   -1.341633125282  9.362276948729 -0.137577115868
O   -5.161716819079  3.811581967722 -6.615507286229
H   -4.731734997277  4.666558136802 -6.632910098271
H   -4.566885632753  3.201712930624 -6.139071489756
O   -3.559853089357  5.849057636374 -5.722888085405
H   -3.894960799511  6.251147341863 -4.891212962609
H   -3.021109027229  6.573529370784 -6.104378322010
O   -1.139837787199  6.521385035973  1.873331942479
H   -1.253835817358  7.158463554254  2.590101858538
H   -1.900413720740  6.648966244525  1.304907608296
O    8.971606751213 -1.304672050525  0.913471454746
H    9.673337594766 -0.693473861417  0.692834575830
H    8.941657348737 -2.047787343341  0.307191320374
O    3.654603401173  7.238007845914 -5.607299121092
H    3.906838396692  7.143145849983 -4.685651735943
H    2.772100246810  7.579231961025 -5.718510872182
O    4.673001927828  4.623446154006 -6.464745569907
H    4.795371327800  5.538548211913 -6.214727263925
H    3.780385353547  4.427237475312 -6.066181067562
O    1.305221534881 -5.602935420829  1.841166960389
H    1.601282054613 -5.066868075448  1.112067900901
H    0.480735060383 -6.003457252130  1.484442648789
O   -5.873197860792  1.557418188533  4.141760227791
H   -6.552264453032  0.885978874606  4.242355392435
H   -6.122127272299  2.064834405268  3.322227087126
O   -4.225854926063  9.931941162564  3.660119678201
H   -4.293245189580  9.907689337358  2.731041006655
H   -4.853840089643  9.247719873184  3.859252419119
O    2.116377747982  4.650758601861 -8.089745261065
H    2.978128753371  5.014990281352 -7.824617315477
H    2.190566426488  3.679721695095 -8.232606033337
O   -4.590556330840  10.238619058003  1.032620638440
H   -4.800144165418  9.933892966233  0.160697754255
H   -3.795639181968  10.787091347303  0.913810343144
O   -2.508490786260 -6.981219096783 -7.396017295408
H   -1.750958377214 -6.851370778071 -8.009766778217
H   -2.137174742140 -7.566139081815 -6.691045992564
O    8.034912945322  2.023927960819  4.793029994873
H    7.544383799824  2.129937182431  5.602534202374
H    8.412009809034  1.104954016043  4.737164310843
O    4.184506744754 -4.124892266372  1.427618652977
H    4.232930457494 -5.066833658910  1.217431750226
H    5.144326143041 -3.752055119057  1.351145566413
O    3.387304301969 -0.521854788016  7.990274194706
H    3.734684404656  0.286858467413  7.477258592996
H    3.678052227516 -1.311063583027  7.577063034394
O    0.445336205764 -0.433296175261 -7.060802158627
H   -0.297203426581 -1.003399177534 -6.910799286022
H    0.918419806892 -0.668671349436 -7.845510066255
O    2.878630129490 -5.765608449697 -0.761085908190
H    1.964744592690 -5.445774658388 -0.938580378021
H    2.925872774261 -6.546703480889 -0.198792812044
O    4.357981089865  6.957712322893  3.884825704482
H    4.734089406331  7.373274831092  4.680452379491
H    3.847267558722  6.194506636597  4.197749693612
O    9.634593650707  2.885356376550  2.251323230194
H    8.959502483557  3.476509493900  1.880697726695
H    9.210322585659  2.712360299858  3.152098805097
O    5.057091026957  8.158985755835  6.133731147505
H    4.187504267873  8.195117357190  6.640554093917
H    5.666195641173  7.711872178628  6.743294152802
O   -1.711776576541  2.655402235989  4.834576562950
H   -1.106295232111  1.877089872860  4.843473932568
H   -1.826430211337  2.763045143147  5.777662830675
O   -1.151838882132 -4.672455562530  2.574976494914
H   -0.999608185071 -4.747968552700  3.505698891298
H   -2.109505304719 -4.392003470804  2.391995577698
O    0.929789572182  2.250734512325 -5.624685737484
H    1.520336599392  1.705809083504 -5.008735215212
H    1.319591961825  3.116136939731 -5.511978611876
O   -0.176090732502 -5.076093727863 -6.422433366186
H   -0.178615089093 -5.174931542270 -7.336394668355
H    0.268564926306 -5.836130624135 -6.113906168071
O    2.585899247010  4.308522171224 -4.755216916240
H    1.877639171169  4.712589547531 -4.199511483704
H    3.255120674175  3.945605115417 -4.155685199203
O   -2.753255644051 -3.299935046083  8.089348466076
H   -2.737432415397 -2.437882134220  7.574379808155
H   -1.846867358541 -3.372467515114  8.453015889236
O   -0.571897209047 -7.662302508778  2.701045620042
H   -1.284505718535 -7.899973958427  2.103480947974
H   -0.914230001084 -6.716817565249  2.838928364292
O    2.449102959094  0.153262673849  1.836754305081
H    3.367530727331 -0.252657679755  1.811631199064
H    2.250121736828  0.073693881603  0.893840586132
O   -7.986772606438 -0.174029591916  4.611363376520
H   -7.659464625942 -1.087934410676  4.857329605455
H   -8.206920736857  0.265337337367  5.425545373250
O    4.245578153708 -9.382412414524  1.640616478722
H    5.103956133244 -9.598343519133  2.003107889147
H    3.736692080731 -8.753946027401  2.281750924594
O    2.586563064246  7.589908567918  6.862075765629
H    2.544626280091  6.650356053990  6.530265519863
H    2.082127293447  8.125024398523  6.257261197954
O   -3.780679357487  4.184778077412  2.488653383343
H   -4.662297690992  3.857288787353  2.222415444914
H   -3.260586477865  4.383034178327  1.718425790083
O   -0.908050034693  9.581920556158  2.098498001236
H   -1.642503065740  10.009252111646  2.572454318962
H   -0.363788149442  10.107589645632  1.570448867765
O    0.510788006858  7.990170982618 -0.190275404791
H    0.500448974260  7.043518472087 -0.333550354465
H    0.160837544182  8.144384898067  0.716843664462
O   -0.925964317671  0.596285734624 -4.549933594671
H   -1.666518330983  1.165192527461 -4.933116198781
H   -0.229575893200  0.997600008183 -5.038809024065
O   -1.869467887111 -3.557850757291 -3.081902419365
H   -1.705949965503 -2.919911694151 -3.801642987659
H   -1.121330761696 -4.214346041110 -3.240638252554
O    6.605970361635 -4.817719952432 -3.842556409301
H    6.167671506869 -4.829095980053 -2.886711712562
H    7.077560945445 -3.892671443119 -3.916507869007
O    6.741429483168 -3.551623522567  1.064513067703
H    6.929962107232 -2.857944599419  1.648527968312
H    7.212869636538 -3.435090490496  0.190014709701
O   -3.931733389961  7.447306503359  7.578600458088
H   -3.820762669371  8.129125772357  8.221190930170
H   -4.839794029099  7.167621473812  7.521427733399
O   -0.131297630253 -0.264282580301  2.168761761711
H    0.827107515039 -0.201552278860  2.348406259674
H   -0.596195868094  0.562236149062  2.101826269442
O   -4.292375512294 -2.529925844048 -0.489421061807
H   -3.669728053305 -1.909177180405 -0.814914702736
H   -4.516332283340 -3.141277798825 -1.181772844645
O   -0.848431286303 -8.352027506208 -5.267620619569
H    0.085828503768 -8.105447413392 -5.495542339707
H   -0.910107639028 -9.315933915738 -5.327907542012
O   -4.014205978799  8.598333968657 -1.260289037719
H   -3.315175043907  9.239509564672 -1.260810361180
H   -3.907627632876  8.001857358497 -0.476496139331
O    0.585940277831  6.078308861693 -6.411413244279
H    1.046136366502  5.590580361624 -7.151382544413
H    1.182801740716  6.793814886548 -6.103074308257
O    4.624182285894  1.423166854895 -0.503349339267
H    3.915857668054  0.873915504530 -0.855620957754
H    5.357218994906  0.809333904390 -0.265848931576
O    3.860926365261  3.191057822457  1.181697650708
H    3.717464294615  2.619962852662  1.931064649346
H    4.420531429894  2.672206075892  0.563972544797
O   -6.765895989269  3.665611362393  5.653696984967
H   -7.477461422511  3.983060818161  5.091121134534
H   -6.440266162694  2.882358233990  5.184848888239
O    2.271065309593  5.201031606141  2.645114236202
H    1.911877180413  6.082114834597  2.863110257931
H    2.560810929910  4.850493235297  3.514622509832
O    3.796829551893  1.722755894351 -5.866294227250
H    3.623252528830  2.581537168144 -5.540850310034
H    3.413031164510  1.764191914419 -6.792437328588
O   -3.485308523526 -9.669636993881 -1.667290725076
H   -2.783044271354 -9.014510605971 -1.761133400024
H   -3.043287703857 -10.515174025548 -1.670967842638
O   -1.736658567079 -1.562909254378 -1.154920953993
H   -1.458264741485 -1.883344329508 -0.246780300635
H   -1.793981367362 -2.401660905473 -1.731850820441
O   -3.301387301598  5.668451086722  4.431898813706
H   -3.361191713066  5.164847137680  3.617996875348
H   -3.188783478589  5.109846482372  5.163011018178
O    1.187680860938 -2.136531527286 -2.728275802637
H    1.467473135010 -2.280757263012 -3.658230478922
H    0.407252416284 -1.561686318236 -2.623988056223
O    2.325888184872  1.936700874621 -8.146157402998
H    1.583481540189  1.616565844428 -7.616069376274
H    2.550587946578  1.460593347695 -8.932526936995
O    2.241134679987  0.190531671959 -4.177977162584
H    3.010701398178  0.660820416328 -4.381224928550
H    2.134326471343  0.234030550255 -3.223261350282
