702
extracted_frame=610 original_comment=system=T4_IV_Hudecova stage=05_298K_extended source_frame=110 global_frame=610 time_ps=6.100000 alignment=none
C    0.820889474435 -0.521805435599 -2.262321370499
O   -0.408470048232 -0.806966059861 -2.085013854120
O    1.610556006098 -1.336769212361 -2.745029443072
C    1.316497091016  0.892652686546 -1.865090924787
H    2.165205151345  1.169728149505 -2.488985767539
N    0.200676035732  1.823140267433 -1.958666511838
H    0.442775979995  2.728129016529 -1.531377092752
H    0.027731964972  1.878139667080 -2.930027155358
C    1.910993747046  0.914787382151 -0.421366525374
H    2.777545871297  0.294995889404 -0.471766565866
H    2.150652363315  1.918109907193 -0.175828324936
C    1.035009707461  0.255659001200  0.564555199155
N   -0.391782546684  0.462490755222  0.529263222170
C   -0.884312002295 -0.286318478977  1.512953107018
H   -1.967735119312 -0.421698170211  1.700940179030
C    1.263226553440 -0.544554039312  1.663849740139
H    2.091094776737 -1.065255419018  1.997324526480
N    0.066344515491 -0.853932974913  2.236713753332
H   -0.078254107637 -1.618837988463  2.951459870149
Zn  -1.455262395303  1.056496940870 -1.218938650995
C   -4.372059723058  0.644478690246 -0.707001107819
C   -4.550423240829  2.024803516637 -1.160246788452
C   -3.560114583815  2.961267141986 -0.421648915730
N   -2.248355382181  2.941252280460 -1.080900791265
H   -2.433978423409  3.244963903459 -1.994608745295
H   -1.679825671793  3.685467151932 -0.645063505965
H   -3.897518465136  3.996804848056 -0.493804478354
C   -3.409482326754  2.542238026859  1.033903831274
O   -2.271251318985  2.435680992126  1.507940240574
O   -4.467757038310  2.422067956340  1.638155347903
H   -4.431564725079  2.132648917482 -2.213488194047
H   -5.637247496506  2.290268836613 -1.000986754154
C   -5.326727630896 -0.267757434952 -0.380152878300
H   -6.370050669461 -0.258716321981 -0.233715810451
N   -4.624693807133 -1.420123946762 -0.215328447324
H   -5.066813048013 -2.322511468323 -0.035977150127
C   -3.357355230343 -1.210057146812 -0.476685039130
H   -2.549477879066 -1.915090499435 -0.342399380362
N   -3.179630801312  0.063553143877 -0.839762501890
O   -4.258874580845 -0.231231509349  2.730773030956
H   -5.199016607225 -0.382513766386  2.989210862792
H   -4.309943467450  0.612327613874  2.328187940486
O    4.184061741339 -5.205935485704 -7.571284067188
H    3.661098494232 -5.991115441592 -7.779450968330
H    3.766707330702 -4.489790695227 -8.037180692692
O    3.318485196278  0.702776878046 -7.228838512655
H    3.425443095144  0.598750228484 -6.269657077009
H    3.695596527813 -0.055622859736 -7.712093315459
O    0.870979081192  8.050052240097 -6.014672125831
H    1.199487034411  7.222720343569 -5.760502574755
H    0.662752249176  8.019352635201 -6.960195882863
O    7.162793958287 -2.804649592447 -2.746631414310
H    7.988047566923 -3.099156975288 -3.185447069987
H    7.255662136557 -3.074499883546 -1.855494600670
O   -2.779524119461 -1.650476487209 -3.248117780906
H   -1.991723389740 -1.329058426714 -2.843218353300
H   -2.596690361257 -1.599043312809 -4.178172859772
O    3.613036432417  8.748970610709 -0.091349900623
H    2.961106558664  8.112089018770  0.266257553783
H    3.085664993160  9.330511402793 -0.717893683203
O    1.248960819977  5.749736700147  4.577529306731
H    2.011108883399  6.390693072167  4.676219882049
H    1.573343491955  4.896013847705  4.826300056468
O    1.891471094725 -5.311354011642  6.554124870950
H    2.832967101408 -4.919267160401  6.570219172391
H    1.449066179903 -4.752938719381  5.941511420951
O    3.753653962827 -3.467174445179  6.468492987819
H    3.995449684847 -2.794335697019  5.762348914364
H    4.447715666653 -3.585851398798  7.072043696994
O   -0.887413812876  5.058615509929  2.981382358312
H   -0.661992238542  4.555620858340  3.792251734120
H   -0.345061043465  5.895892085550  3.030160567791
O    2.275192049645  5.764973326493 -5.562366620910
H    2.979660621980  5.072216598359 -5.696363588882
H    2.493956908434  6.065974757871 -4.655500187073
O   -4.822747991514  9.115081612010 -0.624585766073
H   -5.669200711181  8.735088071373 -0.316578526391
H   -4.553069190303  8.654419927463 -1.414370561265
O   -3.621720772927  5.204389269377  3.105182842870
H   -3.110684306717  5.681588140334  2.471952590023
H   -3.612558779629  4.280525331008  2.874330973594
O    6.823988471842 -6.397846426426 -2.826281279291
H    7.685824128559 -6.572093365900 -2.412628709797
H    6.298739111313 -5.746279075175 -2.282459889949
O    7.734418294852  1.344389785736  4.225290256864
H    7.770342592588  2.020008434647  4.860122200561
H    8.127927512817  1.713991426001  3.387612883592
O   -8.382550692549 -6.114776996680 -2.944526674643
H   -8.645632978323 -5.316406326237 -2.479849853534
H   -8.518760314296 -5.944210891354 -3.886437849816
O   -6.340414535130 -3.654572830105 -1.745638153247
H   -5.853716765048 -3.772783963087 -2.571782102400
H   -6.272753028670 -4.524808446415 -1.234110647297
O   -0.143034724844 -2.028832161458 -5.315031077310
H   -0.514754153304 -2.750336779995 -5.803873980596
H    0.810607517356 -2.204256899716 -5.134459997471
O   -1.356741932729 -6.790901366403 -3.584817631931
H   -0.860289137167 -6.407550470857 -2.832556418577
H   -1.647656113417 -7.720961092049 -3.339297274440
O    4.965783268289 -5.781375434760 -4.578792614043
H    5.736188415519 -6.022256789234 -4.061153309802
H    5.236208875185 -5.274770118208 -5.355946017352
O    9.292900300562 -0.196989618033 -1.863750915402
H    10.116143776707 -0.617641499431 -1.505592290544
H    9.553532257636  0.783253055829 -1.975067555247
O   -7.410695652993 -3.218241842569  4.568579011310
H   -7.479021988981 -3.234998053102  5.525204159489
H   -7.166794147285 -4.140827135832  4.322007825418
O    3.316157221032 -3.086137647908  0.708561188045
H    3.332508321255 -2.921290716016  1.618368227618
H    3.421117027670 -4.043064289736  0.508108109000
O    8.874917350579  2.465236427233  1.850201681324
H    9.681421107588  2.287726588668  1.360555306874
H    8.316942795731  2.889065593367  1.162351062284
O    8.276981690633 -0.254585773592  1.650136902694
H    7.868695372908 -0.284175021985  0.737868662448
H    8.497744554461  0.621624393408  1.876196197299
O   -4.294372456071 -5.448910997419  1.003630454428
H   -3.820667696961 -4.787421200278  1.591741310792
H   -4.465838477674 -4.940106804422  0.164991593714
O   -1.106205467105 -7.122898530561  6.873872154825
H   -0.594904921434 -6.876889091193  7.662818422487
H   -0.512705689180 -7.325327662847  6.180783658390
O   -2.088934698657 -7.323455482807 -8.455695517859
H   -1.674259539200 -8.197224878664 -8.214890235897
H   -1.778200718336 -6.714916380463 -7.701728816061
O   -9.074977125653  3.642615025314  1.400825029975
H   -9.616192989741  4.264560331051  0.976520506116
H   -9.538575402788  2.818195139781  1.487142557280
O   -6.751167030458 -6.612427244364 -0.400355152442
H   -6.107002024078 -7.286252415646 -0.526576716896
H   -7.467677779753 -6.661529396338 -1.048836063577
O    4.126930998038  4.508996263240  3.970981616300
H    5.031142663591  4.366641433936  3.542914330801
H    4.190230693985  5.449481990408  4.223056454772
O    4.378146722204 -1.798144109161  4.455918122389
H    5.206561567586 -1.580888143385  4.027153324166
H    4.041366307686 -0.981341093089  4.923031114727
O   -3.360306279225 -8.593992470836  5.208329192798
H   -3.131126021476 -8.606280882825  4.327626543882
H   -2.785211998353 -8.054079751845  5.810284793541
O   -7.001087537897  1.530930547487  1.900672818989
H   -7.103687571149  1.688248309047  0.944126284322
H   -6.074651558402  1.662254017123  2.131879516609
O    2.409603397436  1.932374975720 -4.560878541614
H    2.470051763162  0.968902108296 -4.506920903548
H    1.471498715642  2.196893370320 -4.710315586369
O    3.285583064320  3.629305619139 -6.380234087643
H    3.893583749015  3.249047645401 -6.992769852293
H    3.078651763103  2.898995595031 -5.715986272111
O    6.467415281582  0.479811192469 -6.191339210817
H    6.791296584143  0.044985569097 -5.408758234049
H    7.136204918963  1.165809790859 -6.472802799339
O   -4.109951553026 -3.074132264452  2.418225419992
H   -4.059895203980 -3.466262165791  3.307117378045
H   -4.150785903474 -2.078745208760  2.518622666703
O    7.521482222494  3.301846706350 -0.650050756007
H    6.973600232914  2.536718940262 -0.476881669846
H    7.026026779110  4.098294909352 -0.723188044187
O    4.477112728058 -0.654633513241  0.793050227458
H    4.645741497856 -0.031112794576  0.025259443971
H    3.947681693308 -1.406049064806  0.450364167570
O    1.781322420997 -2.872729546189  8.058416376565
H    2.577677324839 -2.786272780323  7.491968322883
H    1.601488952490 -1.941047592599  8.346129232600
O   -6.124283067300 -6.392925929412 -4.369015468030
H   -6.903354791796 -6.553385345205 -3.851880558068
H   -5.434067046684 -6.411228501629 -3.700207226388
O    6.643498446062 -6.768690558046  0.576282534160
H    5.905367963241 -6.379932215062  0.094060077395
H    6.371302332559 -6.702002780419  1.538425355135
O   -3.892831675283 -6.392506010556 -2.561807831133
H   -3.825157589693 -5.450898731179 -2.239475847369
H   -3.236989162344 -6.558212135848 -3.291154119096
O   -9.170126944972  2.437561165839 -3.651051843236
H   -8.343224495923  2.882239659956 -3.683058456676
H   -9.157680132687  1.735096324985 -4.313311959602
O    5.994577045805  1.562018565806  7.329168662248
H    6.486966372486  2.233922907175  7.807267988546
H    5.304608982231  1.217545568329  7.879652650354
O    5.958598538237 -0.325032717052  2.954920813637
H    6.932702499828 -0.351675223354  2.590970543748
H    5.321780656360 -0.216437461121  2.248358561769
O    0.658311866957 -1.334515481413  5.038203038213
H    1.369556048435 -0.745832713014  5.316721888823
H   -0.067088513205 -1.297291037815  5.701372498444
O    0.836553557241 -0.643533923199 -7.877798746908
H    1.091245602231 -0.546586872180 -8.791946131032
H    0.614733563834 -1.567680369650 -7.646456212644
O   -7.498012423312  7.888108236427 -0.260744547651
H   -7.284045455266  7.118726856660 -0.801765046935
H   -8.453497294667  7.854577671376 -0.131142000428
O   -7.233039846922  5.332416464674 -1.185812129494
H   -6.825522926091  4.677635553342 -0.481629046215
H   -7.279985780599  4.767217928149 -1.963406922556
O    9.988300283137  2.526133142479 -1.811189877176
H    9.135491979932  2.822688625995 -1.426517261137
H    10.110091451187  2.918401988434 -2.700183120280
O   -5.104187187756  6.187116976138 -5.163803336750
H   -5.515494587547  5.512746646722 -4.641104095924
H   -4.292439893013  5.801799121405 -5.397074022595
O   -3.970075768127  5.959441795155  5.682612937099
H   -4.387963910397  6.801009162223  5.576629272570
H   -3.637011634373  5.727555468077  4.755459841742
O    0.369622582144  7.754520159233  2.687177741608
H    0.198759638197  7.674711651378  3.656249395513
H   -0.207792652821  8.447637799899  2.364000948579
O   -7.590911735618 -0.886027563890  7.280711905637
H   -7.969667288987  0.011645758586  7.370222512629
H   -6.883166524993 -0.727689097842  6.663317618128
O   -5.390066567432  2.394757283440  4.148928241780
H   -6.170999713909  2.930920227865  3.900941124453
H   -4.717176293928  2.575791781930  3.467419359850
O    1.839518536825  1.718133992780  3.903560008961
H    2.275494697472  0.929048295852  4.206971105443
H    0.866413321506  1.504217195579  3.852994734608
O   -2.538266211386  6.633357498534  8.149643063074
H   -3.130654454432  7.419770045198  8.264872343945
H   -2.965665896916  5.962557601628  7.558261491231
O   -2.262973610382 -4.518442322915 -5.078341670671
H   -2.202878785880 -4.126121404661 -5.925779859406
H   -1.958540623427 -5.426970770320 -5.030529596097
O    4.388756138827  3.702303752423  6.786778573510
H    4.490813114303  4.201715223895  5.965825277167
H    4.769792717215  2.865309849369  6.560235206562
O   -0.239052064748 -3.776557479262 -8.708439375236
H   -0.094259072322 -4.460811832425 -8.008413091205
H   -0.922510263228 -4.149186024045 -9.306271044803
O    1.650626471104 -7.959729607851  1.622268176721
H    1.673401887277 -7.102878146146  2.077270383766
H    2.513087610606 -8.147643346790  1.270201384553
O    10.398464663904  2.400579309999 -4.863627847404
H    9.463438236319  2.135579431399 -5.098528969847
H    10.909537690049  1.646873855083 -5.264554114616
O   -0.050233464059 -5.798453625646 -1.575666347759
H   -0.324853701390 -6.154993214823 -0.595339269025
H   -0.341957932079 -4.888928015899 -1.600500824782
O   -2.207222275422 -4.748296730274  5.894526250291
H   -3.100279836350 -4.956657860345  5.758882185881
H   -1.686306109159 -5.477369353556  6.171904273158
O   -2.559334627087 -0.155183441163  4.827634881702
H   -3.244584965114 -0.045480583346  4.094404071266
H   -2.900387422509  0.243932013229  5.645637785956
O    0.259524957857 -4.119048069927  4.753134574718
H   -0.354542616353 -3.421484907393  4.458865939798
H   -0.122299787309 -4.959494165416  4.599535896087
O    3.496016590247  1.233081041022  8.970380141101
H    2.706419031111  0.604577740903  8.852157649829
H    2.946608969543  2.086341010842  8.932919695979
O   -7.784797048283  1.809363283846 -1.049335249609
H   -8.302148885469  2.521670461152 -1.447936287391
H   -8.155091788346  1.019757641925 -1.476555870195
O   -3.017841017074  4.742649774888 -3.859714862853
H   -2.437803048650  5.355221750915 -4.371071801110
H   -3.165735444187  5.188815913614 -2.993594816192
O    5.270477951825  2.770728827301 -4.722357290381
H    5.443758381680  2.018006955725 -5.228159125191
H    5.645512625634  3.609674696852 -5.011934351727
O   -5.264734832673 -0.941099157748 -3.347967539802
H   -4.855686206398 -1.803910042603 -3.244924775636
H   -6.077977005356 -0.984260271763 -2.858673257654
O   -2.677396132248  4.004931653686  6.896477308228
H   -3.411331817634  4.565656260968  6.620998240402
H   -1.901811417606  4.263391100472  6.369629974023
O    4.685687358601  7.187795895462 -2.118942776652
H    5.438961034339  6.757092529022 -2.401514149319
H    4.954802542744  7.665103024959 -1.283403306891
O    9.546785660115 -1.761638443834  3.911306370029
H    10.361705432658 -1.490264686440  4.347982326219
H    9.342383007447 -0.988860505953  3.346434109060
O   -8.424479596266 -0.414763860666 -4.494119860688
H   -8.421906180407 -0.443193032872 -3.519006086241
H   -8.098525545664 -1.240191821703 -4.845429397062
O   -1.145240821813  4.388728284677 -6.505487344114
H   -1.787717081303  3.868252464641 -7.002415900448
H   -1.816817349697  4.923847344860 -5.986450979421
O   -3.253421566131 -7.994994448420  2.143277304008
H   -3.415971871723 -8.170529313128  1.232995723133
H   -2.456591997964 -8.470579747361  2.285832925369
O    0.822014197489 -8.685271598309 -1.066338031179
H    1.498133895994 -9.321457628900 -1.239892611184
H    0.936222013202 -8.454935023875 -0.125361489930
O    6.522846122841  4.278150349987  2.860188233369
H    6.497429746335  3.443321497443  2.401165280918
H    6.740263181398  5.009554955351  2.290827808882
O    1.040089398519 -0.124692781556  8.380497017239
H    0.542498797699 -0.212422454453  9.200469223103
H    0.435116686226  0.324906396429  7.707443319105
O   -5.371717488892  3.299059352265  6.902162570580
H   -4.902590245220  2.482061489178  7.047760176924
H   -5.501951998822  3.444557146808  5.917006619641
O   -0.620426043053  3.796356836406  5.327054385976
H    0.280542686922  3.827993760472  5.777381094841
H   -0.710471480725  2.955236313124  4.779589466077
O   -3.820133431358 -4.861216305427  7.983698572908
H   -2.861019306934 -4.957361142648  8.024516144658
H   -4.116943373318 -4.172728688863  8.653764757038
O    6.481864939471  5.097338315040 -2.368046346051
H    5.659452931705  4.593597509886 -2.652357808650
H    7.017914124587  5.071623542174 -3.136887898662
O   -5.342247337201 -0.263753934341 -5.963449511940
H   -4.377919060427 -0.064519535376 -5.940584730982
H   -5.586749789139 -0.482309349123 -5.046759931514
O    5.542280651148 -3.077221589894 -4.858199674129
H    5.956429677669 -2.956396152968 -4.009411982041
H    4.615572265892 -3.219174625183 -4.671705828001
O   -6.686116756794 -0.775863924556  3.472765454766
H   -7.099644636028 -1.666091681375  3.635782119628
H   -6.649876197975 -0.088637946602  4.125042128985
O   -3.067998698755 -1.258047648948  7.566506017766
H   -3.307772876430 -1.508128347086  8.456724992051
H   -2.219590283844 -1.722300089362  7.394668567750
O   -8.461839642806 -5.170330742255 -5.423544071263
H   -8.564608714945 -4.230953559087 -5.210935107782
H   -7.652530049417 -5.160108968245 -5.901107854499
O   -9.670110206019 -1.387868209524  5.316007676439
H   -9.347106283985 -2.094795446393  4.740512145394
H   -9.287680721056 -1.377897917951  6.221820148676
O   -2.624844483200  7.316251413262  1.825468431919
H   -3.596682057723  7.545239965385  1.837850754210
H   -2.146528746746  8.201181611371  1.777841886828
O    0.319478946162 -8.189260626381 -4.873902767217
H    1.258077344050 -8.118371377028 -4.821249470074
H   -0.010013566415 -7.336055112066 -4.411998819230
O   -3.005967359496  9.847877463780  1.272940950696
H   -2.186166572573  9.796081585083  0.749676167175
H   -3.737783047565  9.873835675742  0.623938118098
O    1.768011433589 -0.405917713386 -10.495191570776
H    1.980208013072  0.519977912006 -10.782746327793
H    2.623665044189 -0.883707973276 -10.420508329209
O   -6.934265764303  1.842118364888 -5.150228738877
H   -6.352801504428  1.351630239533 -5.752562252838
H   -7.270119018201  1.073306190434 -4.669448845410
O   -6.705012252155  4.127616281147  9.235393658301
H   -6.468007814874  3.888327620292  8.346959613856
H   -7.629448411230  4.227887946705  9.401003129552
O    4.840383166504  6.933619398013 -6.643814347062
H    3.942718777874  6.624150877920 -6.410010143031
H    4.817883197794  7.852212874275 -6.898306119556
O   -1.885008231320 -8.923595832305 -6.105420504712
H   -1.023880458381 -8.683239368149 -5.731158900080
H   -2.348324181225 -9.461624432675 -5.419471590477
O   -1.859709851964  7.721780619843 -1.946844518209
H   -1.601292029965  6.774239564113 -1.869655374529
H   -2.820053775688  7.683477378580 -2.189183994043
O    0.607308154888  2.951275646604  1.679354201202
H   -0.137700757811  2.417471957623  1.456898519982
H    0.396857921213  3.631773153146  2.371028949446
O   -6.161022395653 -3.404838509050  7.052421900932
H   -5.328799406820 -3.994062314881  6.846912584085
H   -6.322692960811 -3.158352456716  7.953188409362
O   -2.670683148555  1.204409067428 -3.424928985051
H   -2.994330783197  0.287425502210 -3.434488666381
H   -1.880632396593  1.142822845623 -3.971803082712
O    4.163653515660 -8.645047345020  0.843959677420
H    5.035368625461 -8.405289515384  1.133992472141
H    4.223605186789 -8.498872077199 -0.122876192270
O    0.407678441743 -5.426679135617  8.762806992451
H    1.108183957525 -5.267097740244  8.151629897139
H    0.194164589342 -4.629751811874  9.187612069821
O    2.621526067194 -3.276967518613 -8.936730285418
H    2.731607674797 -2.346223012910 -8.668029389707
H    1.677519292729 -3.556233734056 -9.105889294062
O    2.661340016521 -3.749286407167 -2.515572670277
H    2.174447126219 -2.943205846585 -2.571957818630
H    2.815512192196 -4.108613317561 -3.378294812971
O   -0.483337980072  5.356736019395 -2.408060225417
H   -0.470441585400  4.646131351345 -3.137140097851
H   -0.027042287355  4.990867344874 -1.617447110008
O    1.152595850467 -5.297058952396  1.967042506914
H    1.442944718127 -4.526999904357  2.463179959983
H    0.289169063413 -5.554659396345  2.239376353642
O    6.105817513248  1.973159180792  1.436582344474
H    6.355525957885  1.312446011821  1.990447954739
H    5.144389635279  1.888355401604  1.355001038082
O    3.102124526159  0.182785865265  6.039371654297
H    3.580396476465  1.012924306213  5.751629994559
H    2.866248772974  0.135596576240  6.956436968699
O    4.932174991906  1.305292315682 -2.361104036231
H    4.521049116540  0.473218655066 -2.578318218791
H    5.126406744938  1.724971976358 -3.226232343463
O    1.846425702590  2.932210151240  6.282786226649
H    2.018640378442  2.580333774811  5.393421986393
H    2.545273919681  3.589915278524  6.483396622209
O    2.062544332001  6.545480801452 -2.672728599276
H    1.792600518164  6.498823666224 -1.735971736593
H    2.938980105158  6.931669279908 -2.686383831003
O   -0.761305501776  1.026430275081  6.568808542869
H   -1.113002290489  1.923876449707  6.578411829324
H   -1.485868286626  0.403947567443  6.763508351005
O   -3.265029039535 -3.917901692324 -1.623935321179
H   -3.271642926378 -3.524161138634 -2.494562811388
H   -2.512076808930 -3.711073424275 -1.102905307451
O    2.699294278815 -3.313055086463 -5.389163946554
H    3.040297031857 -3.695880773652 -6.215229995125
H    2.011563064704 -3.876407282731 -4.995573535828
O   -4.438058461075 -3.109719215461  9.931001784422
H   -4.594816727852 -3.490553184816  10.797788257562
H   -5.081600227005 -2.373429511693  9.759845022444
O   -4.173995547549  2.668007770031 -5.163750968944
H   -3.832589207686  2.162533399946 -4.325595240762
H   -4.035172937414  3.578312497727 -4.757641432669
O   -3.005736016546  3.153084072089 -7.375901712290
H   -3.113632300931  2.526995815860 -8.024340075843
H   -3.400487251659  2.869491196147 -6.546983788881
O    7.963338732614  2.785695092587 -3.783961218574
H    7.017230817913  2.926115452127 -3.620635328073
H    8.098352861930  1.867048627242 -3.605016501308
O   -1.922266247159 -9.489443199995 -3.175473391333
H   -1.016635445120 -9.887724349760 -3.343141755155
H   -2.047779398280 -9.665446173974 -2.210313830658
O    7.097264234355 -0.156242488387 -3.730619564814
H    7.714444462292 -0.717106543869 -3.277553274332
H    6.226042000540 -0.515453740072 -3.388851576507
O    2.684267083708 -5.464352318848 -0.093405126932
H    1.801061606421 -5.158365449782  0.183662500880
H    2.998885779918 -5.871212649433  0.723610045133
O   -1.002712655469  1.734899799367  3.702313506773
H   -1.361501293817  0.948483947125  4.198989381800
H   -1.714777859890  2.017271672158  3.087661301711
O    6.006017096189 -2.607175906258  7.868894508704
H    6.474385151016 -1.929203755352  7.317900014118
H    6.678475706629 -3.037510930444  8.409098018421
O   -6.274091693666 -1.228362200211  9.378122926391
H   -6.697962132869 -1.370014948970  8.499326601705
H   -6.061859529643 -0.298469264428  9.492629584748
O   -5.584616160344  6.801802653678  1.726651040830
H   -6.040981202816  6.120927380960  1.124547035433
H   -5.206134383688  6.313172890098  2.391717689419
O    3.135986176828 -10.393815279859 -1.357045353845
H    3.738074985071 -9.958285824993 -2.030720018554
H    3.587228903106 -10.650576839595 -0.536565151343
O   -1.742523169879 -3.890557663451  1.252300311304
H   -0.796452139428 -3.776930907358  0.988991836620
H   -1.976064896510 -3.298655738672  1.924758453439
O   -6.295541026600  4.145155737383 -3.672600047989
H   -5.761474326685  3.679831967032 -3.066180801562
H   -6.596221792851  3.430349734805 -4.256693823153
O   -8.153949430164 -0.974885527157  1.147700227877
H   -7.790950562396 -0.340144221970  1.733874670549
H   -7.604533786922 -1.786186972507  1.244121886077
O   -6.550046340688 -2.759274983435 -6.070015734831
H   -6.298224489834 -1.983946126065 -6.582480419657
H   -5.793146169891 -2.902653578864 -5.474391665506
O    11.104765160224  1.016537750189  0.573524092409
H    11.165936365260  0.036756356667  0.582375528415
H    11.078701277320  1.287024488080 -0.413078199346
O    3.763034251147 -5.916112888696  2.925602187689
H    3.206923226139 -5.227103967427  3.359961983647
H    3.653251092293 -6.616143065411  3.538807790604
O    0.153145318162 -5.502201325301 -6.995060316566
H    0.370953750934 -5.491721504169 -6.029842644257
H    0.665664090380 -6.255657267771 -7.397461103001
O   -1.907041690277 -2.765114503225  3.862901662668
H   -2.330755961815 -3.570892084301  4.215302664101
H   -2.170212517496 -2.070693080618  4.413524071583
O   -4.353849293160 -2.947558835898  4.988813107008
H   -3.942406823217 -2.442285717981  5.664642712577
H   -5.249213855276 -2.861381598822  5.119371419371
O    3.491823750990  7.293421164107  4.644991381276
H    3.562088056814  8.063391449443  4.015989392041
H    4.167927832684  7.520839420936  5.306012114021
O   -3.648351325154 -6.634847355007 -5.792581751684
H   -3.128387474013 -7.522091405137 -5.820806754156
H   -4.598253579371 -6.863416554257 -5.775103739439
O   -7.922525810116 -1.366847783326 -1.595936898240
H   -7.691344095887 -2.302335254381 -1.703787259320
H   -7.963189977251 -1.187431982350 -0.677046674752
O    8.292203546359 -5.211150604244 -0.857011846602
H    7.952585648073 -5.997150350866 -0.415499943921
H    8.405974128139 -4.550048200668 -0.192416153118
O   -3.699761207337 -0.135653232314 -9.320278290858
H   -4.378563005240 -0.003527205216 -8.665199668824
H   -2.879026312894  0.265911204745 -9.073461892571
O    2.297724011834 -2.950674966327  3.165873314227
H    1.559791271292 -2.933012189513  3.766553990635
H    3.001983558846 -2.498696206957  3.633341368196
O    6.098842259427 -4.006573247605  2.350815308679
H    6.479380167740 -3.685885369982  3.141423624103
H    5.354364951029 -4.587155682834  2.609929282932
O   -2.073918763560 -2.775545717852 -7.230493716626
H   -1.380318062779 -3.049893837475 -7.919839433624
H   -2.801530885236 -2.510453652304 -7.775385235572
O    5.021468631177 -4.873566562620 -1.120031991956
H    4.047865569558 -4.788810377830 -1.261015494058
H    5.386163643988 -4.009133295008 -0.814118598875
O    4.354266760348  3.522736364739 -0.628887501034
H    3.988160307338  3.934201507404 -1.384390189940
H    4.809068440930  2.795354142722 -1.140545753342
O   -8.982115675410  1.101186385980  4.010068012307
H   -9.496882498631  0.275227068729  3.975750017275
H   -8.393168500736  1.048911918739  3.232186584525
O    7.143574628366 -0.637876550654  6.193650775748
H    7.489847821772 -0.205806811494  5.382954143711
H    6.655365283547  0.115897255784  6.512496646408
O    3.501876758877 -7.744274285028 -5.103255864062
H    3.949102983842 -6.952574766452 -4.765879994189
H    4.173272242546 -8.409299438488 -5.175764208501
O    0.432888430346  3.798225954703 -4.508960588501
H    1.127613656242  4.506715485486 -4.495709183500
H   -0.180538256454  4.018170929649 -5.280540901067
O    7.496609121692 -3.248604909500  4.661631795844
H    7.011843361143 -2.843555964951  5.397125500268
H    8.305885511940 -2.662045571167  4.486900222641
O    3.529246130413 -0.676121863287 -4.753638455361
H    3.554198445429 -1.528282138170 -5.172821571015
H    3.127241131269 -0.925149875482 -3.898908438194
O   -0.771144607766 -9.137807669203  2.193916482384
H   -0.796719450174 -9.732625762225  1.434596145007
H    0.059836505775 -8.706014606883  2.022753574950
O   -4.810463845779 -6.395548884273  5.717300465664
H   -4.523228376029 -6.354881231315  6.647703806946
H   -4.472530108581 -7.248598866348  5.285695067144
O   -4.796008030285 -3.971532494232 -4.242523578540
H   -3.885548700188 -4.251159311574 -4.400791390269
H   -5.268907219945 -4.835926491411 -4.524372289504
O    3.392391160884  4.149546210666 -2.942200374477
H    3.146573750313  3.419249590993 -3.529568079921
H    2.723449056290  4.846772009334 -2.890726108508
O   -5.590260313914  1.359320045588  9.566362572394
H   -4.769438145378  1.730782536585  9.216505094673
H   -6.146091584352  2.120736556502  9.543436050792
O   -1.073699809072 -6.521302313140  0.576019035343
H   -1.883766430578 -6.963028348737  0.297703309373
H   -1.520557931120 -5.680092101126  0.879937615889
O   -0.889871855194 -2.543510134758  7.050611783951
H   -0.065263085162 -2.786874428624  7.552262601806
H   -1.221917943396 -3.326732237366  6.540561037353
O   -1.534095307402  6.885454769442 -4.681034630105
H   -1.300690766714  7.211461962151 -3.768729083272
H   -0.912610864603  7.471975728488 -5.212375313634
O    4.556483851999 -1.515645077257 -10.278442694949
H    4.591778297111 -2.453022016590 -10.549770343555
H    4.729701661463 -1.381848976596 -9.339214543913
O   -0.729312025805  9.272564523300  0.016792684437
H    0.142095149654  9.581864539005 -0.263258910749
H   -1.286476921997  8.990215822306 -0.793444914557
O   -3.035117258457 -4.413416366582 -9.271845318388
H   -3.622105648186 -4.438739615947 -8.476690223022
H   -2.735087003621 -5.303835113214 -9.290836812861
O   -4.465172006076  8.167155110063 -3.512023828589
H   -5.006011025219  8.923759905834 -3.527174508449
H   -4.787085136900  7.639668849510 -4.357077456594
O    2.883019081735  9.373047091452  2.978209154091
H    3.012197204868  9.528307273547  2.027592742978
H    2.102116433399  8.775690499107  2.976000976088
O    10.121726010422 -3.891609844578 -2.365560114118
H    9.521216588008 -4.447267786695 -1.837540401349
H    10.894356719201 -4.442626430446 -2.522867981781
O    0.689954303920  8.876003752435 -3.324720240494
H    0.571605597299  7.907243506916 -3.181423080793
H    1.004306873737  8.962685846528 -4.237098406484
O    5.671415332095  3.218292649848 -8.248006610393
H    5.012548475029  2.707115703672 -8.629366067011
H    5.637883630175  3.998042207727 -8.738206611333
O    4.444918674261 -8.104324359191 -1.771653896233
H    5.112006713944 -7.434509458217 -2.006661407982
H    3.686087668562 -7.618242142977 -2.141807370745
O   -8.255784303610  1.486167061290  6.534585088458
H   -7.867376519870  2.408712001106  6.304197153953
H   -8.779893216882  1.266389742581  5.715872768721
O   -1.473255827512  6.907916686985  4.944461452913
H   -1.427847099767  6.041333741737  4.566750000796
H   -2.102176991461  6.855965351549  5.646640286460
O   -2.604716069022 -0.360429254935 -6.023564262088
H   -2.552012595251 -1.284367892381 -6.412799534634
H   -2.084924150831  0.205565612714 -6.594809195228
O   -4.519214555292  5.744966452352 -1.938872470969
H   -5.103505779968  5.943980522552 -1.199229484033
H   -4.816182357879  6.357336226490 -2.690936911570
O   -0.635181211324 -3.555420796660 -3.011877738497
H   -1.295781719135 -3.678241224305 -3.697488446130
H   -0.253661030174 -2.691498491444 -3.039218942223
O    6.260797401249 -2.501953824647  0.165761978122
H    5.708218594892 -1.795697524451  0.513066838261
H    6.315788861892 -3.180748380395  0.861965985707
O    8.915243362024 -3.089027058580  0.835378239604
H    8.121621698580 -2.695041859698  0.529291463731
H    9.010467760343 -2.989591505257  1.773408407630
O    7.096581728034  3.689170888518  5.527731157990
H    6.905609839012  3.930758039309  4.629598794357
H    6.313395027811  3.800514781544  6.073011484219
O   -0.286712837426  0.926001197666 -4.545466859497
H   -0.476209166470  0.059641350138 -4.883763596699
H   -0.316581021057  1.380127780296 -5.386714732565
O    2.531880630358 -7.491664874474  5.060717983686
H    1.786444104706 -8.149132412984  5.042294839681
H    2.179292772757 -6.722205135707  5.607865114144
O    0.346854438132  3.013161934809  8.544150541651
H    0.326289865146  3.960415261474  8.533965123231
H    0.677818549591  2.683561465269  7.655268120771
O    5.605489276113  5.614065960680  0.656868065661
H    5.069267135779  4.845505683427  0.330747432483
H    4.897666765276  6.192046840354  0.915694331991
O    2.355923093836  5.134485514362  1.957693953450
H    2.932424734438  4.741872765803  2.591435103790
H    1.829895641281  5.778363234749  2.418991936332
O   -1.532779061465  1.306014866761  9.595842107258
H   -0.811656505924  1.964430086942  9.352141021123
H   -2.144711497146  1.739776014698  10.113600906032
O   -3.582530565011 -7.487599711127 -0.352806262666
H   -3.975341936710 -6.715038028031  0.053985417759
H   -3.729416133310 -7.337448193117 -1.331982613562
O    0.782556697491  1.949451160278 -6.681762941962
H    1.283419056199  2.700392890725 -7.008504410044
H    1.316681192301  1.238992193049 -6.960156778725
O    1.115598345007 -5.249476113841 -4.492759902128
H    0.598830239051 -4.951950178408 -3.707681552652
H    1.844435575658 -5.838319748783 -4.178625067453
O    2.970841303627  2.439034309821 -9.387507115973
H    3.010496071175  1.766399688471 -8.708654830129
H    2.527629307716  3.202461221760 -9.026051879156
O   -3.641065089228  3.538182126729  9.770141005971
H   -3.226378154669  3.877585085042  8.965106051361
H   -4.405889856959  4.107318475497  9.936329900741
O   -0.630604837911 -6.536017390597  3.955818360898
H   -1.507991467102 -6.186545033624  3.967588272848
H   -0.508187943920 -7.360890269803  3.508612731805
O    4.726744625129  1.934394415515  4.906878950067
H    4.253840921120  2.144750404251  4.054972673061
H    5.408978912573  1.290585595035  4.605998366695
O   -6.405940782399 -5.458494739964  3.171414108654
H   -6.107933582870 -6.032261217968  3.875697642689
H   -5.696284968536 -5.495007510465  2.503822318660
O    2.185815427994 -6.906012217675 -2.530031055239
H    1.561243932895 -7.478669946696 -2.040541038322
H    2.212464772968 -6.151817894101 -1.907893559997
O    0.368168507237  6.106742244548  7.230851771512
H   -0.282048933946  6.620811719839  7.639705061286
H    0.550339054424  6.428885005642  6.268117729496
O   -5.668278312600  0.218426631110  5.931812913182
H   -4.829695356252 -0.012885485301  6.381287833121
H   -5.956738637507  1.110930620389  6.134800163853
O    1.579916696658  10.413544793229 -1.382650055790
H    1.881679921989  11.235653509354 -1.765332159226
H    1.106802533379  9.785878723996 -1.960668469653
O    1.466152510310  6.985386911799  0.075258618312
H    1.646972869585  6.163260920536  0.561646541881
H    0.536422480081  7.232058738490  0.196350906313
O    5.129611236525 -1.211872388047 -7.548843607856
H    5.364148850850 -2.018525352021 -7.025118243881
H    5.700338266670 -0.480398476301 -7.154977080237
O    0.682195113427 -3.074830936398 -0.078422483407
H    1.597775204748 -2.929737135139  0.197477892901
H    0.772020779105 -2.942191695957 -1.034354248485
O    1.981054913683 -7.845033380566 -7.333303986000
H    1.563387254737 -8.672245684502 -7.051132865152
H    2.656019483902 -7.703932862786 -6.599248296309
O    10.955067311697 -1.853158021991 -0.161821666279
H    10.929655896393 -2.502975017806 -0.912268479823
H    10.228770989997 -2.207377150812  0.367012272325
O   -3.870572923462  9.097762809360  4.147064442306
H   -4.221498937637  9.411884825898  3.297154375109
H   -2.953336381420  8.796527384341  3.974909735513
O   -3.369782626692  1.533350919557  7.575783382233
H   -2.824529023984  1.280920376491  8.467516580419
H   -2.931470178175  2.437603329611  7.390615943680
O   -3.217318989546 -5.608178667781  3.531509701581
H   -3.261350442273 -6.383502691309  2.948616376772
H   -3.754798281142 -5.773797812049  4.303841194068
O   -1.639251427073 -9.559512081436 -0.411199933214
H   -0.752852706490 -9.164594674352 -0.766631359932
H   -2.321034300537 -8.843958852284 -0.433367823347
O   -1.376171330911  5.449519356739  0.228884077586
H   -1.332780741089  4.978047709104  1.067775936142
H   -1.984651136450  6.236741661666  0.291002663695
O    1.166506249144  4.320904765064 -8.241937326439
H    1.767253701788  4.516920139297 -7.499772644902
H    0.203620475731  4.442333686108 -7.935665915220
O    6.682831174324  5.179279407942 -5.261746531917
H    6.053955347543  5.842973988624 -5.560903421327
H    7.616443375907  5.508080713769 -5.331301720645
O    3.517855931465  2.521472611778  2.035471693252
H    2.717204096243  2.473479433322  2.593129093520
H    3.175871730049  2.874021683361  1.198360078844
O   -6.279903277805  4.263375524469  1.004535606389
H   -5.515159709570  3.618672956507  1.002875177873
H   -6.917056579858  3.928888564024  1.668979472336
O    1.236968287710  4.220914448688 -0.510910106631
H    0.914063502345  3.825537494832  0.340534265460
H    2.157966136965  4.472406636449 -0.270314214301
O    7.777135472093  2.695094886720 -6.592549084085
H    7.502819006534  3.025347700776 -5.700560048721
H    7.198093909079  2.924760612360 -7.269165871886
O   -6.497337017974 -3.149743613430  1.247319543396
H   -6.782135443954 -3.922286149923  1.665334842357
H   -5.678505006787 -2.987059511852  1.760274627764
O    4.568348557574 -1.336814674353 -1.911021455152
H    4.141401406450 -2.157190061212 -2.220024158615
H    5.338298489092 -1.745485148451 -1.414157609784
O   -7.878990278765  3.672042077720  3.759114511903
H   -8.266857003735  3.949917135187  2.910746704304
H   -8.192751695176  2.778504412833  3.893535134483
O    6.930411461459  0.103562743631 -0.669031764100
H    7.753176668903 -0.051786737562 -1.175323302500
H    6.267364195612  0.415728278819 -1.309140473998
O   -1.413242447204  0.941596549423 -8.183315231987
H   -1.058711632404  1.730875556443 -8.594168385563
H   -0.727084993550  0.270331517228 -8.151867219747
O    9.415381364521  5.451397284868 -4.666206357995
H    10.143583377657  5.884494680722 -4.204335034130
H    9.511337280316  4.503093259004 -4.449257133460
