39        
cristal
C 5.025000 4.056000 17.809999
N 3.419000 1.315000 14.870000
O 3.508000 -0.537000 17.983999
C 4.056000 5.025000 13.327000
N 1.315000 3.419000 16.267000
O -0.537000 3.508000 13.153000
C 6.214000 2.284000 18.209999
N 5.950000 3.553000 18.641001
O 1.919000 0.634000 16.964001
C 2.284000 6.214000 12.927000
N 3.553000 5.950000 12.496000
O 0.634000 1.919000 14.173000
C 5.450000 2.025000 17.139999
N 4.681000 3.173000 16.902000
C 2.025000 5.450000 13.997000
N 3.173000 4.681000 14.235000
C 5.417000 0.799000 16.257999
C 0.799000 5.417000 14.879000
C 4.020000 0.360000 15.837000
C 0.360000 4.020000 15.300000
C 3.079000 0.144000 17.011999
C 0.144000 3.079000 14.125000
Zn 3.201000 3.201000 15.569000
H 5.996000 1.008000 15.359000
H 2.601000 1.002000 14.622000
H 1.002000 2.601000 16.514999
H 3.940000 1.341000 14.125000
H 1.341000 3.940000 17.011999
H 6.316000 3.962000 19.330000
H 3.962000 6.316000 11.807000
H 4.667000 4.933000 17.871000
H 4.933000 4.667000 13.266000
H 6.836000 1.683000 18.604000
H 1.683000 6.836000 12.533000
H 5.852000 0.051000 16.740000
H 0.051000 5.852000 14.397000
H 0.980000 5.951000 15.693000
H 4.114000 -0.518000 15.367000
H -0.518000 4.114000 15.770000
