39
ZnHis2_II; Hudecova et al., Chem. Eur. J. 2022, DOI 10.1002/chem.202202045; Table S5; B3LYP/PCM/6-31++G** starting structure
C  -2.797000 -0.796000  0.258000
C  -3.318000 -0.006000 -0.910000
H  -3.272000 -0.619000 -1.819000
H  -4.376000  0.206000 -0.743000
C  -2.603000  1.327000 -1.208000
C  -2.529000  2.220000  0.062000
O  -3.556000  2.850000  0.368000
O  -1.427000  2.211000  0.695000
H  -3.199000  1.862000 -1.952000
N  -1.235000  1.063000 -1.722000
H  -0.844000  1.907000 -2.133000
H  -1.265000  0.369000 -2.465000
N  -1.467000 -0.798000  0.660000
C  -1.378000 -1.639000  1.676000
H  -0.484000 -1.874000  2.230000
N  -2.582000 -2.181000  1.951000
H  -2.777000 -2.849000  2.682000
C  -3.499000 -1.655000  1.066000
H  -4.539000 -1.933000  1.081000
Zn  0.000000  0.677000  0.000000
C   2.797000 -0.796000 -0.259000
C   3.319000 -0.006000  0.911000
H   3.272000 -0.621000  1.818000
H   4.376000  0.205000  0.743000
C   2.603000  1.326000  1.208000
C   2.528000  2.219000 -0.061000
O   1.427000  2.210000 -0.694000
O   3.557000  2.851000 -0.368000
H   3.198000  1.860000  1.952000
N   1.237000  1.062000  1.722000
H   0.844000  1.906000  2.134000
H   1.266000  0.368000  2.465000
N   1.468000 -0.798000 -0.660000
C   1.377000 -1.639000 -1.676000
H   0.483000 -1.873000 -2.230000
N   2.582000 -2.181000 -1.951000
H   2.775000 -2.848000 -2.683000
C   3.498000 -1.654000 -1.066000
H   4.538000 -1.933000 -1.083000
