39
ZnHis2_I; Hudecova et al., Chem. Eur. J. 2022, DOI 10.1002/chem.202202045; Table S5; B3LYP/PCM/6-31++G** starting structure
C  -3.209000 -0.202000 -0.053000
N  -2.028000 -0.888000  0.179000
C  -2.356000 -2.035000  0.749000
N  -3.696000 -2.126000  0.888000
C  -4.257000 -0.968000  0.390000
H  -5.321000 -0.798000  0.396000
H  -4.196000 -2.900000  1.299000
H  -1.666000 -2.789000  1.086000
C  -3.266000  1.149000 -0.714000
H  -4.141000  1.683000 -0.340000
H  -3.423000  1.029000 -1.793000
C  -2.029000  2.045000 -0.515000
C  -1.685000  2.210000  0.991000
O  -2.383000  3.002000  1.649000
O  -0.720000  1.508000  1.441000
H  -2.283000  3.039000 -0.897000
N  -0.868000  1.484000 -1.245000
H  -1.149000  1.156000 -2.166000
H  -0.168000  2.205000 -1.401000
Zn -0.001000  0.000000  0.111000
C   3.209000  0.202000 -0.054000
N   2.027000  0.888000  0.179000
C   2.357000  2.035000  0.749000
N   3.696000  2.126000  0.888000
C   4.257000  0.968000  0.390000
H   5.320000  0.797000  0.396000
H   4.197000  2.900000  1.299000
H   1.667000  2.790000  1.086000
C   3.266000 -1.148000 -0.714000
H   4.141000 -1.684000 -0.340000
H   3.422000 -1.029000 -1.793000
C   2.029000 -2.047000 -0.515000
C   1.685000 -2.210000  0.991000
O   2.381000 -3.002000  1.648000
O   0.721000 -1.508000  1.442000
H   2.284000 -3.039000 -0.896000
N   0.868000 -1.483000 -1.246000
H   1.150000 -1.156000 -2.167000
H   0.169000 -2.205000 -1.400000
