39
ZnHis2_III; Hudecova et al., Chem. Eur. J. 2022, DOI 10.1002/chem.202202045; Table S5; B3LYP/PCM/6-31++G** starting structure
N  -1.560000  0.830000  0.629000
C  -1.368000  2.051000  1.103000
H  -0.421000  2.484000  1.377000
N  -2.540000  2.710000  1.200000
H  -2.659000  3.657000  1.529000
C  -3.541000  1.869000  0.765000
H  -4.575000  2.168000  0.752000
C  -2.925000  0.694000  0.418000
C  -3.596000 -0.576000 -0.037000
H  -4.419000 -0.319000 -0.707000
H  -4.055000 -1.067000  0.830000
C  -2.716000 -1.621000 -0.748000
N  -1.667000 -2.129000  0.169000
H  -1.343000 -3.035000 -0.157000
H  -2.050000 -2.284000  1.098000
H  -3.381000 -2.431000 -1.063000
C  -2.074000 -1.045000 -2.039000
O  -0.842000 -0.718000 -1.970000
O  -2.807000 -0.936000 -3.036000
Zn  0.001000 -0.628000  0.004000
N   1.559000  0.828000 -0.631000
C   1.367000  2.051000 -1.101000
H   0.418000  2.486000 -1.370000
N   2.539000  2.709000 -1.203000
H   2.657000  3.657000 -1.532000
C   3.540000  1.866000 -0.775000
H   4.575000  2.163000 -0.765000
C   2.923000  0.691000 -0.426000
C   3.594000 -0.581000  0.023000
H   4.430000 -0.327000  0.678000
H   4.034000 -1.080000 -0.848000
C   2.719000 -1.616000  0.753000
N   1.664000 -2.134000 -0.151000
H   2.042000 -2.306000 -1.079000
H   1.338000 -3.034000  0.190000
H   3.384000 -2.422000  1.074000
C   2.082000 -1.025000  2.041000
O   0.853000 -0.700000  1.975000
O   2.820000 -0.901000  3.032000
