39
ZnHis2_IV; Hudecova et al., Chem. Eur. J. 2022, DOI 10.1002/chem.202202045; Table S5; B3LYP/PCM/6-31++G** starting structure
C   2.332000 -1.420000 -1.609000
O   1.163000 -1.847000 -1.792000
O   3.344000 -2.079000 -1.284000
C   2.539000  0.111000 -1.805000
H   3.145000  0.247000 -2.705000
N   1.209000  0.753000 -1.994000
H   1.323000  1.739000 -2.218000
H   0.750000  0.316000 -2.789000
C   3.284000  0.769000 -0.624000
H   4.350000  0.562000 -0.721000
H   3.168000  1.857000 -0.697000
C   2.825000  0.280000  0.716000
N   1.481000  0.126000  1.018000
C   1.402000 -0.375000  2.243000
H   0.490000 -0.585000  2.774000
C   3.556000 -0.139000  1.793000
H   4.616000 -0.197000  1.958000
N   2.639000 -0.549000  2.740000
H   2.854000 -0.921000  3.654000
Zn -0.013000  0.349000 -0.327000
C  -2.797000 -0.695000 -0.336000
C  -3.269000  0.723000 -0.494000
C  -2.527000  1.824000  0.298000
N  -1.192000  2.073000 -0.314000
H  -1.313000  2.462000 -1.248000
H  -0.703000  2.782000  0.227000
H  -3.134000  2.730000  0.225000
C  -2.348000  1.509000  1.813000
O  -1.231000  1.045000  2.158000
O  -3.335000  1.759000  2.543000
H  -3.230000  1.000000 -1.556000
H  -4.324000  0.758000 -0.214000
C  -3.547000 -1.836000 -0.243000
H  -4.612000 -1.992000 -0.227000
N  -2.649000 -2.880000 -0.163000
H  -2.883000 -3.861000 -0.081000
C  -1.402000 -2.376000 -0.210000
H  -0.501000 -2.964000 -0.192000
N  -1.459000 -1.056000 -0.318000
